StudentsNr = 5;
InstructorsNr = 3;
DaysNr = 1;
SlotsPerDay = 10;
AvailabilitySlotsLenght = 2;
RoomNr = 1;
ProgrammNr = 1;
DegreeNr = 1;
RolesNr = 2;
CoursesNr = 4;
InstructorsProgramm = [{1}, {1}, {1}];
InstructorRolesPerProgramm = [|{1, 2, 3}, {2}|];
InstructorsAvailability = [|1, 1, 1, 1, 1, |1, 0, 1, 1, 1, |0, 1, 0, 0, 0|];
StudentsProgramm = [1, 1, 1, 1, 1];
StudentsDegree = [1, 1, 1, 1, 1];
StudentsSupervisorId = [2, 2, 1, 1, 1];
StudentsCourseIds = [{3}, {1}, {4}, {2}, {4}];
StudentsAvailability = [|1, 1, 1, 1, 1, |1, 1, 1, 1, 1, |1, 1, 0, 1, 1, |1, 1, 1, 1, 1, |1, 1, 1, 1, 1|];
TheoryticalMinCard = [0, 0, 0, 0, 0];
CoursesInstructorIds = [{1}, {3}, {1, 2, 3}, {1}];
RolesDemands = [0, 0];
RolesContinuity = [];
ExamLen = [2, 2, 2, 2, 2];
LunchTsMinLen = 2;
LunchStarts = [5..6];
SupervisorAvailable = 5;
OptimalLunchLenght = [2, 2];
OptimalStartTs = [1, 2];
OptimalFinishTs = [1, 9];
MinimizeRooms = 300;
RolesSoftContinuity = [|1, 2|1, 2|];
SameDegreeInRoom = 20;
Mergeability = 2;
